NAME : LRC1_6_9
TYPE : PDPTW
DIMENSION : 150
EDGE_WEIGHT_TYPE : EXACT_2D
NODE_COORD_SECTION
1 1 0
2 150 0
3 0 0
4 -10 822
5 0 2
6 44 164
7 3 199
8 586 10
9 61 84
10 0 0
11 103 -20
12 354 0
13 10 49
14 379 7
15 600 720
16 8 230
17 455 10
18 55 68
19 10 437
20 180 27
21 0 468
22 11 261
23 190 12
24 203 323
25 13 257
26 261 10
27 57 155
28 10 0
29 26 -20
30 213 0
31 -30 123
32 0 17
33 182 302
34 18 89
35 328 10
36 84 231
37 10 0
38 240 17
39 0 517
40 -15 145
41 0 22
42 93 213
43 23 180
44 173 10
45 240 73
46 10 0
47 265 20
48 0 369
49 20 45
50 434 27
51 140 260
52 28 160
53 163 10
54 289 130
55 10 0
56 255 5
57 0 111
58 -26 307
59 0 32
60 537 657
61 33 115
62 177 10
63 250 228
64 10 0
65 89 22
66 0 241
67 20 82
68 562 37
69 33 153
70 38 159
71 270 10
72 47 277
73 10 0
74 269 17
75 0 205
76 -13 178
77 0 42
78 136 256
79 43 74
80 879 10
81 140 140
82 10 0
83 241 -10
84 128 0
85 20 98
86 201 47
87 67 187
88 48 136
89 669 10
90 250 124
91 10 0
92 299 -20
93 183 0
94 -10 168
95 0 52
96 118 238
97 53 212
98 254 10
99 259 59
100 10 27
101 104 21
102 0 518
103 -20 120
104 0 57
105 584 704
106 58 57
107 286 10
108 232 121
109 10 0
110 132 10
111 0 83
112 -10 326
113 0 62
114 103 223
115 63 143
116 159 10
117 248 41
118 10 254
119 263 30
120 0 308
121 20 57
122 270 67
123 90 210
124 68 259
125 331 10
126 38 139
127 10 0
128 41 14
129 0 472
130 -10 140
131 0 72
132 171 291
133 73 102
134 918 10
135 43 286
136 10 39
137 160 -10
138 490 0
139 13 78
140 448 77
141 158 278
142 78 88
143 709 10
144 122 127
145 10 0
146 63 10
147 0 302
148 16 97
149 243 82
150 595 715
PICKUP_AND_DELIVERY_SECTION
1 0 0 0 0 0 0
2 0 0 0 0 1206 0
3 0 0 0 0 0 125
4 0 0 0 0 10 10
5 0 0 0 0 107 107
6 0 0 0 0 0 0
7 0 0 0 0 -10 -10
8 0 0 0 0 0 0
9 0 0 0 0 288 288
10 0 0 0 0 5 5
11 0 0 0 0 173 173
12 0 0 0 0 143 143
13 0 0 0 0 10 10
14 0 0 0 0 141 141
15 0 0 0 0 253 253
16 0 0 0 0 -10 -10
17 0 0 0 0 0 0
18 0 0 0 0 125 125
19 0 0 0 0 10 0
20 0 0 0 0 447 447
21 0 0 0 0 159 159
22 0 0 0 0 10 10
23 0 0 0 0 4 4
24 0 0 0 0 0 0
25 0 0 0 0 10 10
26 0 0 0 0 286 0
27 0 0 0 0 93 93
28 0 0 0 0 15 15
29 0 0 0 0 640 640
30 0 0 0 0 231 231
31 0 0 0 0 10 10
32 0 0 0 0 132 132
33 0 0 0 0 409 409
34 0 0 0 0 14 14
35 0 0 0 0 315 0
36 0 0 0 0 500 500
37 0 0 0 0 20 20
38 0 0 0 0 600 600
39 0 0 0 0 110 110
40 0 0 0 0 10 10
41 0 0 0 0 74 74
42 0 0 0 0 0 0
43 0 0 0 0 -10 -10
44 0 0 0 0 0 0
45 0 0 0 0 118 118
46 0 0 0 0 25 25
47 0 0 0 0 298 298
48 0 0 0 0 134 134
49 0 0 0 0 10 10
50 0 0 0 0 59 59
51 0 0 0 0 0 0
52 0 0 0 0 10 10
53 0 0 0 0 275 0
54 0 0 0 0 284 284
55 0 0 0 0 30 30
56 0 0 0 0 316 316
57 0 0 0 0 234 234
58 0 0 0 0 10 10
59 0 0 0 0 208 208
60 0 0 0 0 121 121
61 0 0 0 0 10 10
62 0 0 0 0 444 0
63 0 0 0 0 732 732
64 0 0 0 0 35 35
65 0 0 0 0 901 901
66 0 0 0 0 105 105
67 0 0 0 0 10 10
68 0 0 0 0 183 183
69 0 0 0 0 0 0
70 0 0 0 0 15 15
71 0 0 0 0 187 0
72 0 0 0 0 163 163
73 0 0 0 0 40 40
74 0 0 0 0 521 521
75 0 0 0 0 212 212
76 0 0 0 0 10 10
77 0 0 0 0 149 149
78 0 0 0 0 0 0
79 0 0 0 0 -15 -15
80 0 0 0 0 0 0
81 0 0 0 0 14 14
82 0 0 0 0 45 45
83 0 0 0 0 746 746
84 0 0 0 0 222 222
85 0 0 0 0 10 10
86 0 0 0 0 124 124
87 0 0 0 0 134 134
88 0 0 0 0 -15 -15
89 0 0 0 0 0 0
90 0 0 0 0 103 103
91 0 0 0 0 50 50
92 0 0 0 0 452 452
93 0 0 0 0 258 258
94 0 0 0 0 10 10
95 0 0 0 0 47 47
96 0 0 0 0 0 0
97 0 0 0 0 20 20
98 0 0 0 0 137 0
99 0 0 0 0 141 141
100 0 0 0 0 55 0
101 0 0 0 0 166 166
102 0 0 0 0 77 77
103 0 0 0 0 10 10
104 0 0 0 0 45 45
105 0 0 0 0 471 471
106 0 0 0 0 23 23
107 0 0 0 0 310 0
108 0 0 0 0 532 532
109 0 0 0 0 60 60
110 0 0 0 0 227 227
111 0 0 0 0 18 18
112 0 0 0 0 10 10
113 0 0 0 0 113 113
114 0 0 0 0 0 0
115 0 0 0 0 20 20
116 0 0 0 0 564 0
117 0 0 0 0 424 424
118 0 0 0 0 65 0
119 0 0 0 0 301 301
120 0 0 0 0 109 109
121 0 0 0 0 10 10
122 0 0 0 0 71 71
123 0 0 0 0 0 0
124 0 0 0 0 -20 -20
125 0 0 0 0 0 0
126 0 0 0 0 292 292
127 0 0 0 0 70 70
128 0 0 0 0 419 419
129 0 0 0 0 255 255
130 0 0 0 0 10 10
131 0 0 0 0 122 122
132 0 0 0 0 0 0
133 0 0 0 0 -10 -10
134 0 0 0 0 0 0
135 0 0 0 0 173 173
136 0 0 0 0 75 0
137 0 0 0 0 210 210
138 0 0 0 0 172 172
139 0 0 0 0 10 10
140 0 0 0 0 22 22
141 0 0 0 0 0 0
142 0 0 0 0 -20 -20
143 0 0 0 0 0 0
144 0 0 0 0 0 36
145 0 0 0 0 80 80
146 0 0 0 0 251 251
147 0 0 0 0 53 53
148 0 0 0 0 10 10
149 0 0 0 0 281 281
150 0 0 0 0 337 337
DEPOT_SECTION
1 
-1
EOF
